(set-logic HORN)
(declare-fun state (Int Int Int Int Int Bool Int (Array Int Int) (Array Int Int) (Array Int Int) (Array Int Int) (Array Int Int)) Bool)
(assert (forall ((|A| Int) (|B| Int) (|C| Int) (|H| Int) (|.y.2| Int) (|.loc.3| Bool) (|G| Int) (|F| (Array Int Int)) (|E| (Array Int Int)) (|E_0| (Array Int Int)) (|E_1| (Array Int Int)) (|G_0| (Array Int Int)) (|D| Int) (|.x.1| Int) (|.x.2| Int) (|.x.3| Int) (|.x.4| Int) (|.loc.4| Bool) (|.xtv.1| Int) (|.xtv.2| (Array Int Int)) (|.xtv.3| (Array Int Int)) (|.xiv.1| (Array Int Int)) (|.xpv.1| (Array Int Int)) (|.xpv.2| (Array Int Int))) (=> (and (and (and (= C (select E_0 C)) (= B (select E_0 B))) (= A (select E_0 A))) (not .loc.3)) (state |A| |B| |C| |H| |.y.2| |.loc.3| |G| |F| |E| |E_0| |E_1| |G_0|))))
(assert (forall ((|A| Int) (|B| Int) (|C| Int) (|H| Int) (|.y.2| Int) (|.loc.3| Bool) (|G| Int) (|F| (Array Int Int)) (|E| (Array Int Int)) (|E_0| (Array Int Int)) (|E_1| (Array Int Int)) (|G_0| (Array Int Int)) (|D| Int) (|.x.1| Int) (|.x.2| Int) (|.x.3| Int) (|.x.4| Int) (|.loc.4| Bool) (|.xtv.1| Int) (|.xtv.2| (Array Int Int)) (|.xtv.3| (Array Int Int)) (|.xiv.1| (Array Int Int)) (|.xpv.1| (Array Int Int)) (|.xpv.2| (Array Int Int))) (=> (and (state |A| |B| |C| |H| |.y.2| |.loc.3| |G| |F| |E| |E_0| |E_1| |G_0|) (let ((.def_39 (select F G))) (and (and (not .loc.3) (and (and (and (and (and (= C (select E C)) (and (= (+ (select F D) (* (- 1) .def_39)) 1) (and (= B (select E B)) (and (= A (select E A)) (and (<= 0 .def_39) (= .def_39 0)))))) (= A .x.1)) (= B .x.2)) (= C .x.3)) (= H .x.4))) .loc.4))) (state |.x.1| |.x.2| |.x.3| |D| |.x.4| |.loc.4| |.xtv.1| |.xtv.2| |.xtv.3| |.xiv.1| |.xpv.1| |.xpv.2|))))
(assert (forall ((|A| Int) (|B| Int) (|C| Int) (|H| Int) (|.y.2| Int) (|.loc.3| Bool) (|G| Int) (|F| (Array Int Int)) (|E| (Array Int Int)) (|E_0| (Array Int Int)) (|E_1| (Array Int Int)) (|G_0| (Array Int Int)) (|D| Int) (|.x.1| Int) (|.x.2| Int) (|.x.3| Int) (|.x.4| Int) (|.loc.4| Bool) (|.xtv.1| Int) (|.xtv.2| (Array Int Int)) (|.xtv.3| (Array Int Int)) (|.xiv.1| (Array Int Int)) (|.xpv.1| (Array Int Int)) (|.xpv.2| (Array Int Int))) (=> (state |A| |B| |C| |H| |.y.2| |.loc.3| |G| |F| |E| |E_0| |E_1| |G_0|) (not (and .loc.3 (and (and (and (= C (select E_1 C)) (<= (select G_0 H) 0)) (= B (select E_1 B))) (= A (select E_1 A))))))))
(check-sat)
